TCS_Benchmarks/redos_fix/regexlib2_output_distinct_2916_2915_0_0.smt2
(set-logic QF_S)
(declare-const x String)
(assert (str.in.re x (re.inter (re.+  (re.++ (re.opt  (re.++  (re.union  (re.++  (str.to.re "\u{68}") (re.++  (str.to.re "\u{74}") (re.++  (str.to.re "\u{74}")  (str.to.re "\u{70}"))))  (re.++  (str.to.re "\u{68}") (re.++  (str.to.re "\u{74}") (re.++  (str.to.re "\u{74}") (re.++  (str.to.re "\u{70}")  (str.to.re "\u{73}")))))) (re.++  (str.to.re "\u{3a}") (re.++  (str.to.re "\u{2f}")  (str.to.re "\u{2f}")))) ) (re.++ (re.+  (re.union  (re.++ (re.+  (re.union (re.range "\u{30}" "\u{39}") (re.union (re.range "\u{41}" "\u{5a}") (re.range "\u{61}" "\u{7a}"))) ) (re.++  (str.to.re "\u{2e}") (re.++ (re.+  (re.union  (str.to.re "\u{2d}") (re.union (re.range "\u{30}" "\u{39}") (re.union (re.range "\u{41}" "\u{5a}") (re.range "\u{61}" "\u{7a}")))) )  (re.union   (re.++  (str.to.re "\u{2e}") (re.+  (re.union (re.range "\u{41}" "\u{5a}") (re.range "\u{61}" "\u{7a}")) ))  (re.++  (re.++  (str.to.re "\u{2e}") (re.+  (re.union (re.range "\u{41}" "\u{5a}") (re.range "\u{61}" "\u{7a}")) ))    (re.++  (str.to.re "\u{2e}") (re.+  (re.union (re.range "\u{41}" "\u{5a}") (re.range "\u{61}" "\u{7a}")) )))))))  (re.++  (re.union  (re.++  (str.to.re "\u{32}") (re.++  (str.to.re "\u{35}") (re.range "\u{30}" "\u{35}"))) (re.union  (re.++  (str.to.re "\u{32}") (re.++ (re.range "\u{30}" "\u{34}") (re.range "\u{30}" "\u{39}"))) (re.union  (re.++  (re.range "\u{30}" "\u{31}")  (re.++ (re.range "\u{30}" "\u{39}") (re.range "\u{30}" "\u{39}"))) (re.union  (re.++  (re.range "\u{31}" "\u{39}")  (re.range "\u{30}" "\u{39}")) (re.range "\u{31}" "\u{39}"))))) (re.++  (str.to.re "\u{2e}") (re.++  (re.union  (re.++  (str.to.re "\u{32}") (re.++  (str.to.re "\u{35}") (re.range "\u{30}" "\u{35}"))) (re.union  (re.++  (str.to.re "\u{32}") (re.++ (re.range "\u{30}" "\u{34}") (re.range "\u{30}" "\u{39}"))) (re.union  (re.++  (re.range "\u{30}" "\u{31}")  (re.++ (re.range "\u{30}" "\u{39}") (re.range "\u{30}" "\u{39}"))) (re.union  (re.++  (re.range "\u{31}" "\u{39}")  (re.range "\u{30}" "\u{39}")) (re.union (re.range "\u{31}" "\u{39}")  (str.to.re "\u{30}")))))) (re.++  (str.to.re "\u{2e}") (re.++  (re.union  (re.++  (str.to.re "\u{32}") (re.++  (str.to.re "\u{35}") (re.range "\u{30}" "\u{35}"))) (re.union  (re.++  (str.to.re "\u{32}") (re.++ (re.range "\u{30}" "\u{34}") (re.range "\u{30}" "\u{39}"))) (re.union  (re.++  (re.range "\u{30}" "\u{31}")  (re.++ (re.range "\u{30}" "\u{39}") (re.range "\u{30}" "\u{39}"))) (re.union  (re.++  (re.range "\u{31}" "\u{39}")  (re.range "\u{30}" "\u{39}")) (re.union (re.range "\u{31}" "\u{39}")  (str.to.re "\u{30}")))))) (re.++  (str.to.re "\u{2e}")  (re.union  (re.++  (str.to.re "\u{32}") (re.++  (str.to.re "\u{35}") (re.range "\u{30}" "\u{35}"))) (re.union  (re.++  (str.to.re "\u{32}") (re.++ (re.range "\u{30}" "\u{34}") (re.range "\u{30}" "\u{39}"))) (re.union  (re.++  (re.range "\u{30}" "\u{31}")  (re.++ (re.range "\u{30}" "\u{39}") (re.range "\u{30}" "\u{39}"))) (re.union  (re.++  (re.range "\u{31}" "\u{39}")  (re.range "\u{30}" "\u{39}")) (re.range "\u{30}" "\u{39}")))))))))))) ) (re.opt  (re.++  (str.to.re "\u{3a}") (re.++ (re.range "\u{31}" "\u{39}") (re.* (re.range "\u{30}" "\u{39}") ))) ))) ) (re.+  (re.union  (re.++ (re.+  (re.union (re.range "\u{30}" "\u{39}") (re.union (re.range "\u{41}" "\u{5a}") (re.range "\u{61}" "\u{7a}"))) ) (re.++  (str.to.re "\u{2e}") (re.++ (re.+  (re.union  (str.to.re "\u{2d}") (re.union (re.range "\u{30}" "\u{39}") (re.union (re.range "\u{41}" "\u{5a}") (re.range "\u{61}" "\u{7a}")))) )  (re.union   (re.++  (str.to.re "\u{2e}") (re.+  (re.union (re.range "\u{41}" "\u{5a}") (re.range "\u{61}" "\u{7a}")) ))  (re.++  (re.++  (str.to.re "\u{2e}") (re.+  (re.union (re.range "\u{41}" "\u{5a}") (re.range "\u{61}" "\u{7a}")) ))    (re.++  (str.to.re "\u{2e}") (re.+  (re.union (re.range "\u{41}" "\u{5a}") (re.range "\u{61}" "\u{7a}")) )))))))  (re.++  (re.union  (re.++  (str.to.re "\u{32}") (re.++  (str.to.re "\u{35}") (re.range "\u{30}" "\u{35}"))) (re.union  (re.++  (str.to.re "\u{32}") (re.++ (re.range "\u{30}" "\u{34}") (re.range "\u{30}" "\u{39}"))) (re.union  (re.++  (re.range "\u{30}" "\u{31}")  (re.++ (re.range "\u{30}" "\u{39}") (re.range "\u{30}" "\u{39}"))) (re.union  (re.++  (re.range "\u{31}" "\u{39}")  (re.range "\u{30}" "\u{39}")) (re.range "\u{31}" "\u{39}"))))) (re.++  (str.to.re "\u{2e}") (re.++  (re.union  (re.++  (str.to.re "\u{32}") (re.++  (str.to.re "\u{35}") (re.range "\u{30}" "\u{35}"))) (re.union  (re.++  (str.to.re "\u{32}") (re.++ (re.range "\u{30}" "\u{34}") (re.range "\u{30}" "\u{39}"))) (re.union  (re.++  (re.range "\u{30}" "\u{31}")  (re.++ (re.range "\u{30}" "\u{39}") (re.range "\u{30}" "\u{39}"))) (re.union  (re.++  (re.range "\u{31}" "\u{39}")  (re.range "\u{30}" "\u{39}")) (re.union (re.range "\u{31}" "\u{39}")  (str.to.re "\u{30}")))))) (re.++  (str.to.re "\u{2e}") (re.++  (re.union  (re.++  (str.to.re "\u{32}") (re.++  (str.to.re "\u{35}") (re.range "\u{30}" "\u{35}"))) (re.union  (re.++  (str.to.re "\u{32}") (re.++ (re.range "\u{30}" "\u{34}") (re.range "\u{30}" "\u{39}"))) (re.union  (re.++  (re.range "\u{30}" "\u{31}")  (re.++ (re.range "\u{30}" "\u{39}") (re.range "\u{30}" "\u{39}"))) (re.union  (re.++  (re.range "\u{31}" "\u{39}")  (re.range "\u{30}" "\u{39}")) (re.union (re.range "\u{31}" "\u{39}")  (str.to.re "\u{30}")))))) (re.++  (str.to.re "\u{2e}")  (re.union  (re.++  (str.to.re "\u{32}") (re.++  (str.to.re "\u{35}") (re.range "\u{30}" "\u{35}"))) (re.union  (re.++  (str.to.re "\u{32}") (re.++ (re.range "\u{30}" "\u{34}") (re.range "\u{30}" "\u{39}"))) (re.union  (re.++  (re.range "\u{30}" "\u{31}")  (re.++ (re.range "\u{30}" "\u{39}") (re.range "\u{30}" "\u{39}"))) (re.union  (re.++  (re.range "\u{31}" "\u{39}")  (re.range "\u{30}" "\u{39}")) (re.range "\u{30}" "\u{39}")))))))))))) ) )))
(check-sat)
(get-model)